Test: fpga12_11_sat.cnf
Options: -print-activity -no-inverting-opt -activity-nl-freq=1
WARNING: for repeatability, setting FPU to use double precision
============================[ Problem Statistics ]=============================
|                                                                             |
|  Number of symmetries:           29                                         |
|  Number of invertingSyms:         0                                         |
|  Number of variables:           198                                         |
|  Number of clauses:             968                                         |
|  Parse time:                   0.00 s                                       |
|                                                                             |
============================[ Search Statistics ]==============================
| Conflicts |          ORIGINAL         |          LEARNT          | Progress |
|           |    Vars  Clauses Literals |    Limit  Clauses Lit/Cl |          |
===============================================================================
ActiveSyms: 29
ActiveSyms: 27
ActiveSyms: 27
ActiveSyms: 27
ActiveSyms: 27
ActiveSyms: 27
ActiveSyms: 25
ActiveSyms: 25
ActiveSyms: 25
ActiveSyms: 25
ActiveSyms: 25
ActiveSyms: 26
ActiveSyms: 24
ActiveSyms: 24
ActiveSyms: 24
ActiveSyms: 24
ActiveSyms: 24
ActiveSyms: 26
ActiveSyms: 24
ActiveSyms: 24
ActiveSyms: 24
ActiveSyms: 24
ActiveSyms: 24
ActiveSyms: 26
ActiveSyms: 24
ActiveSyms: 24
ActiveSyms: 24
ActiveSyms: 24
ActiveSyms: 24
ActiveSyms: 26
ActiveSyms: 24
ActiveSyms: 24
ActiveSyms: 24
ActiveSyms: 24
ActiveSyms: 24
ActiveSyms: 26
ActiveSyms: 25
ActiveSyms: 25
ActiveSyms: 25
ActiveSyms: 25
ActiveSyms: 25
ActiveSyms: 27
ActiveSyms: 26
ActiveSyms: 26
ActiveSyms: 26
ActiveSyms: 26
ActiveSyms: 24
ActiveSyms: 24
ActiveSyms: 24
ActiveSyms: 25
ActiveSyms: 23
ActiveSyms: 23
ActiveSyms: 23
ActiveSyms: 25
ActiveSyms: 23
ActiveSyms: 23
ActiveSyms: 23
ActiveSyms: 25
ActiveSyms: 23
ActiveSyms: 23
ActiveSyms: 23
ActiveSyms: 25
ActiveSyms: 23
ActiveSyms: 22
ActiveSyms: 25
ActiveSyms: 23
ActiveSyms: 21
ActiveSyms: 20
ActiveSyms: 20
ActiveSyms: 19
ActiveSyms: 20
ActiveSyms: 25
ActiveSyms: 23
ActiveSyms: 22
ActiveSyms: 21
ActiveSyms: 20
ActiveSyms: 19
ActiveSyms: 18
ActiveSyms: 18
ActiveSyms: 18
ActiveSyms: 18
ActiveSyms: 18
ActiveSyms: 19
ActiveSyms: 19
ActiveSyms: 18
ActiveSyms: 19
ActiveSyms: 20
ActiveSyms: 21
ActiveSyms: 22
ActiveSyms: 25
ActiveSyms: 24
ActiveSyms: 23
ActiveSyms: 22
ActiveSyms: 21
ActiveSyms: 21
ActiveSyms: 21
ActiveSyms: 21
ActiveSyms: 21
ActiveSyms: 21
ActiveSyms: 21
ActiveSyms: 22
ActiveSyms: 23
ActiveSyms: 27
ActiveSyms: 25
ActiveSyms: 24
ActiveSyms: 24
ActiveSyms: 23
ActiveSyms: 23
ActiveSyms: 23
ActiveSyms: 22
ActiveSyms: 23
ActiveSyms: 21
ActiveSyms: 21
ActiveSyms: 20
ActiveSyms: 21
ActiveSyms: 21
ActiveSyms: 22
ActiveSyms: 21
ActiveSyms: 22
ActiveSyms: 21
ActiveSyms: 22
ActiveSyms: 21
ActiveSyms: 22
ActiveSyms: 21
ActiveSyms: 21
ActiveSyms: 22
ActiveSyms: 20
ActiveSyms: 22
ActiveSyms: 21
ActiveSyms: 20
ActiveSyms: 21
ActiveSyms: 21
ActiveSyms: 22
ActiveSyms: 24
ActiveSyms: 22
ActiveSyms: 24
ActiveSyms: 23
ActiveSyms: 21
ActiveSyms: 21
ActiveSyms: 20
ActiveSyms: 19
ActiveSyms: 20
ActiveSyms: 19
ActiveSyms: 18
ActiveSyms: 19
ActiveSyms: 20
ActiveSyms: 21
ActiveSyms: 23
ActiveSyms: 22
ActiveSyms: 22
ActiveSyms: 22
ActiveSyms: 23
ActiveSyms: 23
ActiveSyms: 22
ActiveSyms: 21
ActiveSyms: 21
ActiveSyms: 19
ActiveSyms: 19
ActiveSyms: 19
ActiveSyms: 19
ActiveSyms: 19
ActiveSyms: 21
ActiveSyms: 22
ActiveSyms: 23
ActiveSyms: 24
ActiveSyms: 24
ActiveSyms: 26
ActiveSyms: 24
ActiveSyms: 22
ActiveSyms: 22
ActiveSyms: 22
ActiveSyms: 22
ActiveSyms: 23
ActiveSyms: 22
ActiveSyms: 22
ActiveSyms: 22
ActiveSyms: 22
ActiveSyms: 22
ActiveSyms: 20
ActiveSyms: 20
ActiveSyms: 19
ActiveSyms: 19
ActiveSyms: 19
ActiveSyms: 20
ActiveSyms: 18
ActiveSyms: 18
ActiveSyms: 18
ActiveSyms: 18
ActiveSyms: 18
ActiveSyms: 18
ActiveSyms: 19
ActiveSyms: 19
ActiveSyms: 19
ActiveSyms: 17
ActiveSyms: 17
ActiveSyms: 17
ActiveSyms: 19
ActiveSyms: 18
ActiveSyms: 18
ActiveSyms: 18
ActiveSyms: 18
ActiveSyms: 18
ActiveSyms: 20
ActiveSyms: 19
ActiveSyms: 19
ActiveSyms: 18
ActiveSyms: 17
ActiveSyms: 17
ActiveSyms: 18
ActiveSyms: 18
ActiveSyms: 16
ActiveSyms: 16
ActiveSyms: 15
ActiveSyms: 16
ActiveSyms: 15
ActiveSyms: 13
ActiveSyms: 16
ActiveSyms: 18
ActiveSyms: 17
ActiveSyms: 16
ActiveSyms: 16
ActiveSyms: 15
ActiveSyms: 14
ActiveSyms: 14
ActiveSyms: 15
ActiveSyms: 16
ActiveSyms: 17
ActiveSyms: 17
ActiveSyms: 18
ActiveSyms: 21
ActiveSyms: 19
ActiveSyms: 19
ActiveSyms: 19
ActiveSyms: 19
ActiveSyms: 19
ActiveSyms: 18
ActiveSyms: 20
ActiveSyms: 20
ActiveSyms: 18
ActiveSyms: 20
ActiveSyms: 19
ActiveSyms: 19
ActiveSyms: 20
ActiveSyms: 19
ActiveSyms: 20
ActiveSyms: 20
ActiveSyms: 23
ActiveSyms: 22
ActiveSyms: 22
ActiveSyms: 22
ActiveSyms: 20
ActiveSyms: 19
ActiveSyms: 19
ActiveSyms: 17
ActiveSyms: 18
ActiveSyms: 18
ActiveSyms: 19
ActiveSyms: 20
ActiveSyms: 19
ActiveSyms: 19
ActiveSyms: 19
ActiveSyms: 19
ActiveSyms: 19
ActiveSyms: 19
ActiveSyms: 19
ActiveSyms: 18
ActiveSyms: 16
ActiveSyms: 15
ActiveSyms: 14
ActiveSyms: 16
ActiveSyms: 18
ActiveSyms: 20
ActiveSyms: 19
ActiveSyms: 20
ActiveSyms: 19
ActiveSyms: 18
ActiveSyms: 17
ActiveSyms: 17
ActiveSyms: 16
ActiveSyms: 17
ActiveSyms: 15
ActiveSyms: 17
ActiveSyms: 15
ActiveSyms: 14
ActiveSyms: 14
ActiveSyms: 13
ActiveSyms: 15
ActiveSyms: 17
ActiveSyms: 15
ActiveSyms: 17
ActiveSyms: 17
ActiveSyms: 19
|       100 |     198      968     2640 |      354      241     46 |  0.003 % |
ActiveSyms: 19
ActiveSyms: 19
ActiveSyms: 29
ActiveSyms: 25
ActiveSyms: 25
ActiveSyms: 25
ActiveSyms: 26
ActiveSyms: 26
ActiveSyms: 23
ActiveSyms: 23
ActiveSyms: 23
ActiveSyms: 23
ActiveSyms: 24
ActiveSyms: 23
ActiveSyms: 23
ActiveSyms: 21
ActiveSyms: 21
ActiveSyms: 21
ActiveSyms: 21
ActiveSyms: 23
ActiveSyms: 21
ActiveSyms: 21
ActiveSyms: 21
ActiveSyms: 21
ActiveSyms: 22
ActiveSyms: 21
ActiveSyms: 22
ActiveSyms: 20
ActiveSyms: 20
ActiveSyms: 20
ActiveSyms: 21
ActiveSyms: 22
ActiveSyms: 20
ActiveSyms: 20
ActiveSyms: 20
ActiveSyms: 18
ActiveSyms: 18
ActiveSyms: 17
ActiveSyms: 18
ActiveSyms: 18
ActiveSyms: 19
ActiveSyms: 18
ActiveSyms: 18
ActiveSyms: 18
ActiveSyms: 20
ActiveSyms: 18
ActiveSyms: 17
ActiveSyms: 17
ActiveSyms: 17
ActiveSyms: 18
ActiveSyms: 18
ActiveSyms: 17
ActiveSyms: 17
ActiveSyms: 17
ActiveSyms: 17
ActiveSyms: 17
ActiveSyms: 16
ActiveSyms: 16
ActiveSyms: 16
ActiveSyms: 17
ActiveSyms: 16
ActiveSyms: 17
ActiveSyms: 17
ActiveSyms: 17
ActiveSyms: 17
ActiveSyms: 16
ActiveSyms: 15
ActiveSyms: 15
ActiveSyms: 13
ActiveSyms: 13
ActiveSyms: 13
ActiveSyms: 16
ActiveSyms: 15
ActiveSyms: 16
ActiveSyms: 13
ActiveSyms: 12
ActiveSyms: 13
ActiveSyms: 17
ActiveSyms: 16
ActiveSyms: 17
ActiveSyms: 17
ActiveSyms: 17
ActiveSyms: 17
ActiveSyms: 16
ActiveSyms: 16
ActiveSyms: 15
ActiveSyms: 14
ActiveSyms: 14
ActiveSyms: 15
ActiveSyms: 14
ActiveSyms: 16
ActiveSyms: 18
ActiveSyms: 17
ActiveSyms: 17
ActiveSyms: 16
ActiveSyms: 15
ActiveSyms: 14
ActiveSyms: 13
ActiveSyms: 14
ActiveSyms: 15
ActiveSyms: 15
ActiveSyms: 15
ActiveSyms: 16
ActiveSyms: 17
ActiveSyms: 18
ActiveSyms: 17
ActiveSyms: 16
ActiveSyms: 15
ActiveSyms: 15
ActiveSyms: 15
ActiveSyms: 13
ActiveSyms: 14
ActiveSyms: 14
ActiveSyms: 13
ActiveSyms: 12
ActiveSyms: 12
ActiveSyms: 10
ActiveSyms: 10
ActiveSyms: 9
ActiveSyms: 9
ActiveSyms: 8
ActiveSyms: 7
ActiveSyms: 8
ActiveSyms: 7
ActiveSyms: 7
ActiveSyms: 8
ActiveSyms: 8
ActiveSyms: 8
ActiveSyms: 7
ActiveSyms: 7
ActiveSyms: 6
ActiveSyms: 4
ActiveSyms: 4
ActiveSyms: 5
ActiveSyms: 4
ActiveSyms: 4
ActiveSyms: 4
ActiveSyms: 3
ActiveSyms: 3
ActiveSyms: 3
ActiveSyms: 4
ActiveSyms: 3
ActiveSyms: 4
ActiveSyms: 5
ActiveSyms: 7
ActiveSyms: 7
ActiveSyms: 6
ActiveSyms: 6
ActiveSyms: 6
ActiveSyms: 7
ActiveSyms: 6
ActiveSyms: 5
ActiveSyms: 5
ActiveSyms: 4
ActiveSyms: 5
ActiveSyms: 5
ActiveSyms: 4
ActiveSyms: 5
ActiveSyms: 6
ActiveSyms: 6
ActiveSyms: 10
ActiveSyms: 10
ActiveSyms: 9
ActiveSyms: 8
ActiveSyms: 8
ActiveSyms: 8
ActiveSyms: 8
ActiveSyms: 7
ActiveSyms: 7
ActiveSyms: 7
ActiveSyms: 6
ActiveSyms: 6
ActiveSyms: 8
ActiveSyms: 7
ActiveSyms: 6
ActiveSyms: 5
ActiveSyms: 4
ActiveSyms: 4
ActiveSyms: 4
ActiveSyms: 4
ActiveSyms: 5
ActiveSyms: 4
ActiveSyms: 3
ActiveSyms: 3
ActiveSyms: 3
ActiveSyms: 4
ActiveSyms: 3
ActiveSyms: 2
ActiveSyms: 1
ActiveSyms: 1
ActiveSyms: 1
ActiveSyms: 2
ActiveSyms: 1
ActiveSyms: 1
ActiveSyms: 1
ActiveSyms: 0
ActiveSyms: 1
ActiveSyms: 0
===============================================================================
restarts              : 2
conflicts             : 134            (inf /sec)
symconflicts          : 58             (inf /sec)
decisions             : 355            (0.00 % random) (inf /sec)
propagations          : 2646           (inf /sec)
sympropagations       : 191            (inf /sec)
conflict literals     : 5439           (0.78 % deleted)
literals     : 5439           (0.78 % deleted)

HEURISTIC USAGES
random                : 0           
activity w/ lookahead : 0           
activity no lookahead : 354         
original sp           : 0           
sym count             : 0           

Memory used           : 5.00 MB
CPU time              : 0 s

SATISFIABLE
